1039	654	774	1140	267	555	461	940	363	863
903	995	430	72	355	0	242	1077	815	1171
144	227	929	984	688	469	397	610	83	0
827	457	144	626	527	761	686	50	1003	940
363	824	524	0	98	686	591	757	268	186
1140	0	604	1061	186	267	331	688	524	790
623	99	863	527	430	929	1028	0	718	1100
554	304	253	171	0	375	98	469	616	711
0	518	684	303	774	850	171	384	908	1003
303	375	1087	253	850	1028	761	554	457	610
